25-26-43-47-66-69-67-68-46-44-45-23-24-20-21-22-0-75-74-1-2-3-4-19-18-30-29-28-31-32-33-34-35-36-17-16-10-9-8-5-6-7-73-13-12-11-14-15-37-38-39-40-59-58-60-61-57-54-55-56-62-63-72-71-70-64-65-50-49-48-51-52-53-41-42-27 112528
